c 
c G(n,p) graph
c graph gen seed     : 12071
c number of vertices : 30
c max number of edges: 500
c edge probability   : 0.600000
c data structure     : dense
c
c           Graph Stats
c number of vertices  : 30
c nonisolated vertices: 30
c number of edges     : 256
c edge density        : 0.588506
c max degree          : 23
c avg degree          : 17.07
c min degree          : 13
p col 30 256
e 1 5
e 1 9
e 1 10
e 1 13
e 1 14
e 1 16
e 1 17
e 1 20
e 1 21
e 1 22
e 1 23
e 1 24
e 1 25
e 1 27
e 1 29
e 2 3
e 2 6
e 2 7
e 2 11
e 2 13
e 2 14
e 2 16
e 2 17
e 2 18
e 2 19
e 2 22
e 2 23
e 2 24
e 2 25
e 2 26
e 2 28
e 2 29
e 3 6
e 3 8
e 3 9
e 3 10
e 3 11
e 3 12
e 3 13
e 3 14
e 3 16
e 3 18
e 3 21
e 3 23
e 3 25
e 3 27
e 3 29
e 3 30
e 4 6
e 4 7
e 4 8
e 4 10
e 4 14
e 4 15
e 4 17
e 4 18
e 4 19
e 4 21
e 4 22
e 4 26
e 4 28
e 4 29
e 4 30
e 5 6
e 5 7
e 5 9
e 5 11
e 5 13
e 5 14
e 5 15
e 5 16
e 5 18
e 5 20
e 5 21
e 5 23
e 5 28
e 5 29
e 6 7
e 6 8
e 6 10
e 6 11
e 6 12
e 6 13
e 6 15
e 6 19
e 6 24
e 6 26
e 6 27
e 6 28
e 6 29
e 7 8
e 7 9
e 7 11
e 7 14
e 7 16
e 7 17
e 7 21
e 7 25
e 7 26
e 7 27
e 7 30
e 8 9
e 8 10
e 8 11
e 8 12
e 8 14
e 8 17
e 8 18
e 8 19
e 8 22
e 8 23
e 8 26
e 8 29
e 8 30
e 9 10
e 9 11
e 9 13
e 9 14
e 9 15
e 9 17
e 9 18
e 9 19
e 9 20
e 9 22
e 9 23
e 9 24
e 9 26
e 9 27
e 10 11
e 10 12
e 10 13
e 10 14
e 10 15
e 10 16
e 10 17
e 10 18
e 10 20
e 10 24
e 10 25
e 10 30
e 11 12
e 11 13
e 11 14
e 11 15
e 11 16
e 11 17
e 11 20
e 11 23
e 11 24
e 11 27
e 11 28
e 11 30
e 12 13
e 12 15
e 12 16
e 12 17
e 12 18
e 12 19
e 12 20
e 12 22
e 12 24
e 12 25
e 12 26
e 12 27
e 12 29
e 13 14
e 13 15
e 13 17
e 13 18
e 13 20
e 13 21
e 13 22
e 13 24
e 13 25
e 13 26
e 13 27
e 13 28
e 13 29
e 13 30
e 14 15
e 14 16
e 14 17
e 14 19
e 14 20
e 14 21
e 14 22
e 14 24
e 14 27
e 14 29
e 14 30
e 15 20
e 15 24
e 15 28
e 15 29
e 16 21
e 16 23
e 16 24
e 16 25
e 16 29
e 17 20
e 17 21
e 17 22
e 17 24
e 17 26
e 17 28
e 17 29
e 18 20
e 18 21
e 18 24
e 18 25
e 18 26
e 18 27
e 18 29
e 19 20
e 19 21
e 19 22
e 19 26
e 19 27
e 19 28
e 20 22
e 20 23
e 20 24
e 20 26
e 20 27
e 20 29
e 20 30
e 21 22
e 21 25
e 21 26
e 21 27
e 22 23
e 22 25
e 22 26
e 22 27
e 22 29
e 22 30
e 23 24
e 23 28
e 23 30
e 24 25
e 24 26
e 24 28
e 24 29
e 24 30
e 25 26
e 25 28
e 25 29
e 25 30
e 26 27
e 26 28
e 27 28
e 27 29
e 27 30
e 28 29
e 28 30
e 29 30
